;symbolic execution tree
(push)
(assert (le x1 java.lang.StringBuffer))
(check-sat)
(push)
(assert (le x2 com.lowagie.text.pdf.PdfDictionary))
(check-sat)
(push)
(assert (le x1 java.lang.StringBuffer))
(check-sat)
(pop)
(push)
(assert (not (le x1 java.lang.StringBuffer)))
(check-sat)
(pop)
(push)
(assert (le x1 java.lang.StringBuffer))
(check-sat)
(push)
(assert (le x1 java.lang.StringBuffer))
(check-sat)
(push)
(assert (le x1 java.lang.StringBuffer))
(check-sat)
(push)
(assert (le x3 java.lang.String))
(check-sat)
(pop)
(push)
(assert (not (le x3 java.lang.String)))
(check-sat)
(pop)
(pop)
(push)
(assert (not (le x1 java.lang.StringBuffer)))
(check-sat)
(pop)
(push)
(assert (le x1 java.lang.StringBuffer))
(check-sat)
(push)
(assert (le x0 java.lang.String))
(check-sat)
(push)
(assert (le x2 com.lowagie.text.pdf.PdfDictionary))
(check-sat)
(pop)
(push)
(assert (not (le x2 com.lowagie.text.pdf.PdfDictionary)))
(check-sat)
(pop)
(push)
(assert (le x1 java.lang.StringBuffer))
(check-sat)
(pop)
(push)
(assert (not (le x1 java.lang.StringBuffer)))
(check-sat)
(pop)
(pop)
(push)
(assert (not (le x0 java.lang.String)))
(check-sat)
(push)
(assert (le x1 java.lang.StringBuffer))
(check-sat)
(pop)
(push)
(assert (not (le x1 java.lang.StringBuffer)))
(check-sat)
(pop)
(pop)
(push)
(assert (le x2 com.lowagie.text.pdf.PdfDictionary))
(check-sat)
(pop)
(push)
(assert (not (le x2 com.lowagie.text.pdf.PdfDictionary)))
(check-sat)
(pop)
(pop)
(push)
(assert (not (le x1 java.lang.StringBuffer)))
(check-sat)
(pop)
(push)
(assert (le x1 java.lang.StringBuffer))
(check-sat)
(push)
(assert (le x1 java.lang.StringBuffer))
(check-sat)
(pop)
(push)
(assert (not (le x1 java.lang.StringBuffer)))
(check-sat)
(pop)
(pop)
(push)
(assert (not (le x1 java.lang.StringBuffer)))
(check-sat)
(pop)
(pop)
(push)
(assert (not (le x1 java.lang.StringBuffer)))
(check-sat)
(pop)
(pop)
(push)
(assert (not (le x1 java.lang.StringBuffer)))
(check-sat)
(pop)
(pop)
(push)
(assert (not (le x2 com.lowagie.text.pdf.PdfDictionary)))
(check-sat)
(push)
(assert (le x0 com.lowagie.text.pdf.ByteBuffer))
(check-sat)
(push)
(assert (le x3 java.lang.String))
(check-sat)
(pop)
(push)
(assert (not (le x3 java.lang.String)))
(check-sat)
(push)
(assert (le x0 com.lowagie.text.pdf.ByteBuffer))
(check-sat)
(pop)
(push)
(assert (not (le x0 com.lowagie.text.pdf.ByteBuffer)))
(check-sat)
(pop)
(push)
(assert (le x0 com.lowagie.text.pdf.ByteBuffer))
(check-sat)
(push)
(assert (le x3 java.lang.String))
(check-sat)
(pop)
(push)
(assert (not (le x3 java.lang.String)))
(check-sat)
(push)
(assert (le x0 com.lowagie.text.pdf.ByteBuffer))
(check-sat)
(pop)
(push)
(assert (not (le x0 com.lowagie.text.pdf.ByteBuffer)))
(check-sat)
(pop)
(pop)
(pop)
(push)
(assert (not (le x0 com.lowagie.text.pdf.ByteBuffer)))
(check-sat)
(pop)
(push)
(assert (le x1 java.lang.StringBuffer))
(check-sat)
(pop)
(push)
(assert (not (le x1 java.lang.StringBuffer)))
(check-sat)
(pop)
(push)
(assert (le x2 com.lowagie.text.pdf.PdfDictionary))
(check-sat)
(pop)
(push)
(assert (not (le x2 com.lowagie.text.pdf.PdfDictionary)))
(check-sat)
(push)
(assert (le x2 com.lowagie.text.pdf.PdfDictionary))
(check-sat)
(pop)
(push)
(assert (not (le x2 com.lowagie.text.pdf.PdfDictionary)))
(check-sat)
(push)
(assert (le x3 java.lang.String))
(check-sat)
(pop)
(push)
(assert (not (le x3 java.lang.String)))
(check-sat)
(pop)
(push)
(assert (le x1 java.lang.StringBuffer))
(check-sat)
(pop)
(push)
(assert (not (le x1 java.lang.StringBuffer)))
(check-sat)
(pop)
(push)
(assert (le x1 java.lang.StringBuffer))
(check-sat)
(pop)
(push)
(assert (not (le x1 java.lang.StringBuffer)))
(check-sat)
(pop)
(pop)
(push)
(assert (le x1 java.lang.StringBuffer))
(check-sat)
(pop)
(push)
(assert (not (le x1 java.lang.StringBuffer)))
(check-sat)
(pop)
(push)
(assert (le x1 java.lang.StringBuffer))
(check-sat)
(pop)
(push)
(assert (not (le x1 java.lang.StringBuffer)))
(check-sat)
(pop)
(push)
(assert (le x1 java.lang.StringBuffer))
(check-sat)
(push)
(assert (le x2 com.lowagie.text.pdf.PdfStream))
(check-sat)
(pop)
(push)
(assert (not (le x2 com.lowagie.text.pdf.PdfStream)))
(check-sat)
(push)
(assert (le x3 java.lang.String))
(check-sat)
(pop)
(push)
(assert (not (le x3 java.lang.String)))
(check-sat)
(pop)
(push)
(assert (le x2 com.lowagie.text.pdf.PdfDictionary))
(check-sat)
(pop)
(push)
(assert (not (le x2 com.lowagie.text.pdf.PdfDictionary)))
(check-sat)
(pop)
(pop)
(push)
(assert (le x0 com.lowagie.text.pdf.ByteBuffer))
(check-sat)
(pop)
(push)
(assert (not (le x0 com.lowagie.text.pdf.ByteBuffer)))
(check-sat)
(pop)
(push)
(assert (le x0 com.lowagie.text.pdf.ByteBuffer))
(check-sat)
(push)
(assert (le x2 com.lowagie.text.pdf.PdfDictionary))
(check-sat)
(pop)
(push)
(assert (not (le x2 com.lowagie.text.pdf.PdfDictionary)))
(check-sat)
(pop)
(push)
(assert (le x3 java.lang.String))
(check-sat)
(pop)
(push)
(assert (not (le x3 java.lang.String)))
(check-sat)
(pop)
(pop)
(push)
(assert (not (le x0 com.lowagie.text.pdf.ByteBuffer)))
(check-sat)
(pop)
(pop)
(push)
(assert (not (le x1 java.lang.StringBuffer)))
(check-sat)
(pop)
(pop)
(pop)
(push)
(assert (le x3 java.lang.String))
(check-sat)
(pop)
(push)
(assert (not (le x3 java.lang.String)))
(check-sat)
(push)
(assert (le x2 com.lowagie.text.pdf.PdfDictionary))
(check-sat)
(pop)
(push)
(assert (not (le x2 com.lowagie.text.pdf.PdfDictionary)))
(check-sat)
(push)
(assert (le x2 com.lowagie.text.pdf.PdfDictionary))
(check-sat)
(pop)
(push)
(assert (not (le x2 com.lowagie.text.pdf.PdfDictionary)))
(check-sat)
(pop)
(pop)
(pop)
(push)
(assert (le x3 java.lang.String))
(check-sat)
(pop)
(push)
(assert (not (le x3 java.lang.String)))
(check-sat)
(push)
(assert (le x0 com.lowagie.text.pdf.ByteBuffer))
(check-sat)
(push)
(assert (le x1 java.lang.StringBuffer))
(check-sat)
(pop)
(push)
(assert (not (le x1 java.lang.StringBuffer)))
(check-sat)
(pop)
(push)
(assert (le x2 com.lowagie.text.pdf.PdfDictionary))
(check-sat)
(pop)
(push)
(assert (not (le x2 com.lowagie.text.pdf.PdfDictionary)))
(check-sat)
(pop)
(pop)
(push)
(assert (not (le x0 com.lowagie.text.pdf.ByteBuffer)))
(check-sat)
(pop)
(pop)
(push)
(assert (le x3 java.lang.StringBuffer))
(check-sat)
(push)
(assert (le x0 com.lowagie.text.pdf.ByteBuffer))
(check-sat)
(push)
(assert (le x1 java.lang.StringBuffer))
(check-sat)
(push)
(assert (le x0 com.lowagie.text.pdf.ByteBuffer))
(check-sat)
(pop)
(push)
(assert (not (le x0 com.lowagie.text.pdf.ByteBuffer)))
(check-sat)
(pop)
(push)
(assert (le x2 com.lowagie.text.pdf.PdfDictionary))
(check-sat)
(pop)
(push)
(assert (not (le x2 com.lowagie.text.pdf.PdfDictionary)))
(check-sat)
(push)
(assert (le x0 com.lowagie.text.pdf.ByteBuffer))
(check-sat)
(push)
(assert (le x2 com.lowagie.text.pdf.PdfDictionary))
(check-sat)
(pop)
(push)
(assert (not (le x2 com.lowagie.text.pdf.PdfDictionary)))
(check-sat)
(pop)
(pop)
(push)
(assert (not (le x0 com.lowagie.text.pdf.ByteBuffer)))
(check-sat)
(pop)
(pop)
(pop)
(push)
(assert (not (le x1 java.lang.StringBuffer)))
(check-sat)
(pop)
(pop)
(push)
(assert (not (le x0 com.lowagie.text.pdf.ByteBuffer)))
(check-sat)
(pop)
(pop)
(push)
(assert (not (le x3 java.lang.StringBuffer)))
(check-sat)
(push)
(assert (le x3 java.lang.StringBuffer))
(check-sat)
(pop)
(push)
(assert (not (le x3 java.lang.StringBuffer)))
(check-sat)
(push)
(assert (le x1 java.lang.StringBuffer))
(check-sat)
(push)
(assert (le x2 com.lowagie.text.pdf.PdfDictionary))
(check-sat)
(pop)
(push)
(assert (not (le x2 com.lowagie.text.pdf.PdfDictionary)))
(check-sat)
(pop)
(pop)
(push)
(assert (not (le x1 java.lang.StringBuffer)))
(check-sat)
(pop)
(pop)
(push)
(assert (le x3 java.lang.StringBuffer))
(check-sat)
(pop)
(push)
(assert (not (le x3 java.lang.StringBuffer)))
(check-sat)
(pop)
(pop)
(push)
(assert (le x3 java.lang.StringBuffer))
(check-sat)
(push)
(assert (le x3 java.lang.StringBuffer))
(check-sat)
(push)
(assert (le x1 java.lang.StringBuffer))
(check-sat)
(push)
(assert (le x3 java.lang.StringBuffer))
(check-sat)
(pop)
(push)
(assert (not (le x3 java.lang.StringBuffer)))
(check-sat)
(pop)
(push)
(assert (le x0 com.lowagie.text.pdf.ByteBuffer))
(check-sat)
(push)
(assert (le x1 java.lang.StringBuffer))
(check-sat)
(push)
(assert (le x1 java.lang.StringBuffer))
(check-sat)
(pop)
(push)
(assert (not (le x1 java.lang.StringBuffer)))
(check-sat)
(pop)
(pop)
(push)
(assert (not (le x1 java.lang.StringBuffer)))
(check-sat)
(pop)
(push)
(assert (le x3 java.lang.StringBuffer))
(check-sat)
(pop)
(push)
(assert (not (le x3 java.lang.StringBuffer)))
(check-sat)
(pop)
(pop)
(push)
(assert (not (le x0 com.lowagie.text.pdf.ByteBuffer)))
(check-sat)
(pop)
(push)
(assert (le x2 com.lowagie.text.pdf.PdfDictionary))
(check-sat)
(pop)
(push)
(assert (not (le x2 com.lowagie.text.pdf.PdfDictionary)))
(check-sat)
(pop)
(pop)
(push)
(assert (not (le x1 java.lang.StringBuffer)))
(check-sat)
(pop)
(push)
(assert (le x3 java.lang.StringBuffer))
(check-sat)
(push)
(assert (le x3 java.lang.StringBuffer))
(check-sat)
(pop)
(push)
(assert (not (le x3 java.lang.StringBuffer)))
(check-sat)
(pop)
(push)
(assert (le x1 java.lang.StringBuffer))
(check-sat)
(pop)
(push)
(assert (not (le x1 java.lang.StringBuffer)))
(check-sat)
(pop)
(pop)
(push)
(assert (not (le x3 java.lang.StringBuffer)))
(check-sat)
(pop)
(push)
(assert (le x1 java.lang.StringBuffer))
(check-sat)
(push)
(assert (le x1 java.lang.StringBuffer))
(check-sat)
(push)
(assert (le x1 java.lang.StringBuffer))
(check-sat)
(pop)
(push)
(assert (not (le x1 java.lang.StringBuffer)))
(check-sat)
(pop)
(pop)
(push)
(assert (not (le x1 java.lang.StringBuffer)))
(check-sat)
(pop)
(push)
(assert (le x1 java.lang.StringBuffer))
(check-sat)
(pop)
(push)
(assert (not (le x1 java.lang.StringBuffer)))
(check-sat)
(pop)
(push)
(assert (le x3 java.lang.StringBuffer))
(check-sat)
(push)
(assert (le x0 com.lowagie.text.pdf.ByteBuffer))
(check-sat)
(pop)
(push)
(assert (not (le x0 com.lowagie.text.pdf.ByteBuffer)))
(check-sat)
(pop)
(push)
(assert (le x2 com.lowagie.text.pdf.PdfObject))
(check-sat)
(pop)
(push)
(assert (not (le x2 com.lowagie.text.pdf.PdfObject)))
(check-sat)
(pop)
(pop)
(push)
(assert (not (le x3 java.lang.StringBuffer)))
(check-sat)
(pop)
(push)
(assert (le x1 java.lang.StringBuffer))
(check-sat)
(pop)
(push)
(assert (not (le x1 java.lang.StringBuffer)))
(check-sat)
(pop)
(pop)
(push)
(assert (not (le x1 java.lang.StringBuffer)))
(check-sat)
(pop)
(pop)
(push)
(assert (not (le x3 java.lang.StringBuffer)))
(check-sat)
(pop)
(push)
(assert (le x2 com.lowagie.text.pdf.PdfDictionary))
(check-sat)
(pop)
(push)
(assert (not (le x2 com.lowagie.text.pdf.PdfDictionary)))
(check-sat)
(pop)
(push)
(assert (le x0 com.lowagie.text.pdf.ByteBuffer))
(check-sat)
(push)
(assert (le x3 java.lang.StringBuffer))
(check-sat)
(pop)
(push)
(assert (not (le x3 java.lang.StringBuffer)))
(check-sat)
(pop)
(pop)
(push)
(assert (not (le x0 com.lowagie.text.pdf.ByteBuffer)))
(check-sat)
(pop)
(pop)
(push)
(assert (not (le x3 java.lang.StringBuffer)))
(check-sat)
(pop)
(push)
(assert (le x0 com.lowagie.text.pdf.ByteBuffer))
(check-sat)
(push)
(assert (le x0 com.lowagie.text.pdf.ByteBuffer))
(check-sat)
(pop)
(push)
(assert (not (le x0 com.lowagie.text.pdf.ByteBuffer)))
(check-sat)
(pop)
(push)
(assert (le x3 java.lang.StringBuffer))
(check-sat)
(push)
(assert (le x3 java.lang.StringBuffer))
(check-sat)
(push)
(assert (le x2 com.lowagie.text.pdf.PdfDictionary))
(check-sat)
(pop)
(push)
(assert (not (le x2 com.lowagie.text.pdf.PdfDictionary)))
(check-sat)
(pop)
(pop)
(push)
(assert (not (le x3 java.lang.StringBuffer)))
(check-sat)
(pop)
(push)
(assert (le x1 java.lang.StringBuffer))
(check-sat)
(pop)
(push)
(assert (not (le x1 java.lang.StringBuffer)))
(check-sat)
(pop)
(push)
(assert (le x1 java.lang.StringBuffer))
(check-sat)
(push)
(assert (le x0 com.lowagie.text.pdf.ByteBuffer))
(check-sat)
(push)
(assert (le x1 java.lang.StringBuffer))
(check-sat)
(push)
(assert (le x2 com.lowagie.text.pdf.PdfDictionary))
(check-sat)
(pop)
(push)
(assert (not (le x2 com.lowagie.text.pdf.PdfDictionary)))
(check-sat)
(push)
(assert (le x0 com.lowagie.text.pdf.ByteBuffer))
(check-sat)
(pop)
(push)
(assert (not (le x0 com.lowagie.text.pdf.ByteBuffer)))
(check-sat)
(pop)
(pop)
(pop)
(push)
(assert (not (le x1 java.lang.StringBuffer)))
(check-sat)
(pop)
(pop)
(push)
(assert (not (le x0 com.lowagie.text.pdf.ByteBuffer)))
(check-sat)
(pop)
(pop)
(push)
(assert (not (le x1 java.lang.StringBuffer)))
(check-sat)
(pop)
(pop)
(push)
(assert (not (le x3 java.lang.StringBuffer)))
(check-sat)
(pop)
(pop)
(push)
(assert (not (le x0 com.lowagie.text.pdf.ByteBuffer)))
(check-sat)
(pop)
(pop)
(push)
(assert (not (le x0 com.lowagie.text.pdf.ByteBuffer)))
(check-sat)
(push)
(assert (le x2 com.lowagie.text.pdf.PdfDictionary))
(check-sat)
(pop)
(push)
(assert (not (le x2 com.lowagie.text.pdf.PdfDictionary)))
(check-sat)
(push)
(assert (le x1 java.lang.StringBuffer))
(check-sat)
(pop)
(push)
(assert (not (le x1 java.lang.StringBuffer)))
(check-sat)
(pop)
(pop)
(push)
(assert (le x0 com.lowagie.text.pdf.ByteBuffer))
(check-sat)
(pop)
(push)
(assert (not (le x0 com.lowagie.text.pdf.ByteBuffer)))
(check-sat)
(pop)
(push)
(assert (le x2 com.lowagie.text.pdf.PdfDictionary))
(check-sat)
(pop)
(push)
(assert (not (le x2 com.lowagie.text.pdf.PdfDictionary)))
(check-sat)
(push)
(assert (le x0 com.lowagie.text.pdf.ByteBuffer))
(check-sat)
(pop)
(push)
(assert (not (le x0 com.lowagie.text.pdf.ByteBuffer)))
(check-sat)
(pop)
(push)
(assert (le x1 java.lang.StringBuffer))
(check-sat)
(push)
(assert (le x3 java.lang.StringBuffer))
(check-sat)
(pop)
(push)
(assert (not (le x3 java.lang.StringBuffer)))
(check-sat)
(push)
(assert (le x2 com.lowagie.text.pdf.PdfDictionary))
(check-sat)
(pop)
(push)
(assert (not (le x2 com.lowagie.text.pdf.PdfDictionary)))
(check-sat)
(pop)
(pop)
(pop)
(push)
(assert (not (le x1 java.lang.StringBuffer)))
(check-sat)
(pop)
(push)
(assert (le x1 java.lang.StringBuffer))
(check-sat)
(pop)
(push)
(assert (not (le x1 java.lang.StringBuffer)))
(check-sat)
(pop)
(pop)
(push)
(assert (le x0 com.lowagie.text.pdf.ByteBuffer))
(check-sat)
(pop)
(push)
(assert (not (le x0 com.lowagie.text.pdf.ByteBuffer)))
(check-sat)
(pop)
(push)
(assert (le x3 java.lang.Integer))
(check-sat)
(push)
(assert (le x3 java.lang.Integer))
(check-sat)
(push)
(assert (le x3 java.lang.Integer))
(check-sat)
(pop)
(push)
(assert (not (le x3 java.lang.Integer)))
(check-sat)
(pop)
(push)
(assert (le x3 java.lang.Integer))
(check-sat)
(pop)
(push)
(assert (not (le x3 java.lang.Integer)))
(check-sat)
(pop)
(push)
(assert (le x3 java.lang.Integer))
(check-sat)
(pop)
(push)
(assert (not (le x3 java.lang.Integer)))
(check-sat)
(pop)
(push)
(assert (le x0 com.lowagie.text.pdf.ByteBuffer))
(check-sat)
(pop)
(push)
(assert (not (le x0 com.lowagie.text.pdf.ByteBuffer)))
(check-sat)
(push)
(assert (le x0 com.lowagie.text.pdf.ByteBuffer))
(check-sat)
(pop)
(push)
(assert (not (le x0 com.lowagie.text.pdf.ByteBuffer)))
(check-sat)
(push)
(assert (le x0 com.lowagie.text.pdf.ByteBuffer))
(check-sat)
(pop)
(push)
(assert (not (le x0 com.lowagie.text.pdf.ByteBuffer)))
(check-sat)
(pop)
(pop)
(push)
(assert (le x1 java.lang.StringBuffer))
(check-sat)
(push)
(assert (le x3 java.lang.Integer))
(check-sat)
(pop)
(push)
(assert (not (le x3 java.lang.Integer)))
(check-sat)
(pop)
(push)
(assert (le x0 com.lowagie.text.pdf.ByteBuffer))
(check-sat)
(pop)
(push)
(assert (not (le x0 com.lowagie.text.pdf.ByteBuffer)))
(check-sat)
(pop)
(pop)
(push)
(assert (not (le x1 java.lang.StringBuffer)))
(check-sat)
(pop)
(pop)
(push)
(assert (le x2 com.lowagie.text.pdf.PdfDictionary))
(check-sat)
(pop)
(push)
(assert (not (le x2 com.lowagie.text.pdf.PdfDictionary)))
(check-sat)
(pop)
(pop)
(push)
(assert (not (le x3 java.lang.Integer)))
(check-sat)
(pop)
(pop)
(push)
(assert (not (le x3 java.lang.Integer)))
(check-sat)
(pop)
(push)
(assert (le x3 java.lang.StringBuffer))
(check-sat)
(push)
(assert (le x0 com.lowagie.text.pdf.ByteBuffer))
(check-sat)
(pop)
(push)
(assert (not (le x0 com.lowagie.text.pdf.ByteBuffer)))
(check-sat)
(push)
(assert (le x0 com.lowagie.text.pdf.ByteBuffer))
(check-sat)
(pop)
(push)
(assert (not (le x0 com.lowagie.text.pdf.ByteBuffer)))
(check-sat)
(push)
(assert (le x2 com.lowagie.text.pdf.PdfObject))
(check-sat)
(pop)
(push)
(assert (not (le x2 com.lowagie.text.pdf.PdfObject)))
(check-sat)
(pop)
(pop)
(pop)
(push)
(assert (le x1 java.lang.StringBuffer))
(check-sat)
(push)
(assert (le x1 java.lang.StringBuffer))
(check-sat)
(pop)
(push)
(assert (not (le x1 java.lang.StringBuffer)))
(check-sat)
(pop)
(push)
(assert (le x3 java.lang.StringBuffer))
(check-sat)
(push)
(assert (le x3 java.lang.StringBuffer))
(check-sat)
(pop)
(push)
(assert (not (le x3 java.lang.StringBuffer)))
(check-sat)
(pop)
(push)
(assert (le x0 com.lowagie.text.pdf.ByteBuffer))
(check-sat)
(pop)
(push)
(assert (not (le x0 com.lowagie.text.pdf.ByteBuffer)))
(check-sat)
(pop)
(pop)
(push)
(assert (not (le x3 java.lang.StringBuffer)))
(check-sat)
(pop)
(push)
(assert (le x3 java.lang.StringBuffer))
(check-sat)
(push)
(assert (le x3 java.lang.StringBuffer))
(check-sat)
(pop)
(push)
(assert (not (le x3 java.lang.StringBuffer)))
(check-sat)
(pop)
(push)
(assert (le x2 com.lowagie.text.pdf.PdfDictionary))
(check-sat)
(pop)
(push)
(assert (not (le x2 com.lowagie.text.pdf.PdfDictionary)))
(check-sat)
(push)
(assert (le x2 com.lowagie.text.pdf.PdfDictionary))
(check-sat)
(pop)
(push)
(assert (not (le x2 com.lowagie.text.pdf.PdfDictionary)))
(check-sat)
(push)
(assert (le x0 com.lowagie.text.pdf.ByteBuffer))
(check-sat)
(pop)
(push)
(assert (not (le x0 com.lowagie.text.pdf.ByteBuffer)))
(check-sat)
(pop)
(pop)
(push)
(assert (le x1 java.lang.StringBuffer))
(check-sat)
(pop)
(push)
(assert (not (le x1 java.lang.StringBuffer)))
(check-sat)
(pop)
(pop)
(pop)
(push)
(assert (not (le x3 java.lang.StringBuffer)))
(check-sat)
(pop)
(pop)
(push)
(assert (not (le x1 java.lang.StringBuffer)))
(check-sat)
(pop)
(push)
(assert (le x3 java.lang.StringBuffer))
(check-sat)
(push)
(assert (le x1 java.lang.StringBuffer))
(check-sat)
(push)
(assert (le x1 java.lang.StringBuffer))
(check-sat)
(pop)
(push)
(assert (not (le x1 java.lang.StringBuffer)))
(check-sat)
(pop)
(pop)
(push)
(assert (not (le x1 java.lang.StringBuffer)))
(check-sat)
(pop)
(pop)
(push)
(assert (not (le x3 java.lang.StringBuffer)))
(check-sat)
(pop)
(pop)
(push)
(assert (not (le x3 java.lang.StringBuffer)))
(check-sat)
(push)
(assert (le x2 com.lowagie.text.pdf.PdfDictionary))
(check-sat)
(pop)
(push)
(assert (not (le x2 com.lowagie.text.pdf.PdfDictionary)))
(check-sat)
(pop)
(pop)
(push)
(assert (le x3 com.lowagie.text.pdf.PdfName))
(check-sat)
(push)
(assert (le x2 com.lowagie.text.pdf.ByteBuffer))
(check-sat)
(pop)
(push)
(assert (le x2 java.util.WeakHashMap))
(check-sat)
(push)
(assert (le x3 com.lowagie.text.pdf.PdfObject))
(check-sat)
(push)
(assert (le x1 java.lang.StringBuffer))
(check-sat)
(pop)
(push)
(assert (not (le x1 java.lang.StringBuffer)))
(check-sat)
(pop)
(pop)
(push)
(assert (not (le x3 com.lowagie.text.pdf.PdfObject)))
(check-sat)
(pop)
(pop)
(push)
(assert (le x2 com.lowagie.text.pdf.PRAcroForm))
(check-sat)
(pop)
(push)
(assert (le x2 java.util.HashMap))
(check-sat)
(pop)
(push)
(assert (le x2 java.util.Hashtable))
(check-sat)
(pop)
(push)
(assert (not (le x2 java.util.Hashtable)))
(check-sat)
(pop)
(push)
(assert (le x2 java.io.ByteArrayOutputStream))
(check-sat)
(push)
(assert (le x2 com.lowagie.text.pdf.PdfDictionary))
(check-sat)
(pop)
(push)
(assert (not (le x2 com.lowagie.text.pdf.PdfDictionary)))
(check-sat)
(push)
(assert (le x0 com.lowagie.text.pdf.ByteBuffer))
(check-sat)
(pop)
(push)
(assert (not (le x0 com.lowagie.text.pdf.ByteBuffer)))
(check-sat)
(push)
(assert (le x2 com.lowagie.text.pdf.PRStream))
(check-sat)
(pop)
(push)
(assert (not (le x2 com.lowagie.text.pdf.PRStream)))
(check-sat)
(push)
(assert (le x1 java.lang.StringBuffer))
(check-sat)
(pop)
(push)
(assert (not (le x1 java.lang.StringBuffer)))
(check-sat)
(pop)
(pop)
(pop)
(push)
(assert (le x2 com.lowagie.text.pdf.ByteBuffer))
(check-sat)
(pop)
(push)
(assert (le x2 java.util.WeakHashMap))
(check-sat)
(pop)
(push)
(assert (le x2 com.lowagie.text.pdf.PRAcroForm))
(check-sat)
(pop)
(push)
(assert (le x2 java.util.HashMap))
(check-sat)
(pop)
(push)
(assert (le x2 java.util.Hashtable))
(check-sat)
(pop)
(push)
(assert (not (le x2 java.util.Hashtable)))
(check-sat)
(pop)
(push)
(assert (le x2 java.io.ByteArrayOutputStream))
(check-sat)
(pop)
(push)
(assert (not (le x2 java.util.IdentityHashMap)))
(check-sat)
(push)
(assert (le x2 java.util.AbstractMap))
(check-sat)
(push)
(assert (not (le x2 java.util.HashMap)))
(check-sat)
(push)
(assert (not (le x2 org.dom4j.tree.ConcurrentReaderHashMap)))
(check-sat)
(push)
(assert (not (le x2 java.util.TreeMap)))
(check-sat)
(push)
(assert (not (le x2 java.util.WeakHashMap)))
(check-sat)
(pop)
(pop)
(pop)
(pop)
(pop)
(pop)
(push)
(assert (le x2 com.lowagie.text.pdf.PdfReader_currencysign_PageRefs))
(check-sat)
(pop)
(push)
(assert (le x2 java.util.Vector))
(check-sat)
(pop)
(push)
(assert (le x2 com.lowagie.text.pdf.PdfContentByte))
(check-sat)
(pop)
(push)
(assert (le x2 java.util.IdentityHashMap))
(check-sat)
(pop)
(push)
(assert (le x2 com.lowagie.text.pdf.PdfDictionary))
(check-sat)
(push)
(assert (not (le x2 com.lowagie.text.pdf.PRAcroForm)))
(check-sat)
(pop)
(pop)
(push)
(assert (le x2 java.util.AbstractCollection))
(check-sat)
(pop)
(push)
(assert (le x2 java.util.TreeMap))
(check-sat)
(pop)
(push)
(assert (le x2 java.util.HashSet))
(check-sat)
(pop)
(push)
(assert (le x2 org.dom4j.tree.NamespaceStack))
(check-sat)
(pop)
(push)
(assert (le x2 com.lowagie.text.pdf.PdfArray))
(check-sat)
(pop)
(push)
(assert (le x2 com.lowagie.text.pdf.IntHashtable))
(check-sat)
(pop)
(push)
(assert (le x2 org.jaxen.util.SingletonList))
(check-sat)
(pop)
(push)
(assert (le x2 java.util.TreeSet))
(check-sat)
(pop)
(push)
(assert (le x2 java.util.LinkedList))
(check-sat)
(pop)
(push)
(assert (le x2 org.dom4j.io.ElementStack))
(check-sat)
(pop)
(push)
(assert (le x2 com.lowagie.text.pdf.PdfCell))
(check-sat)
(pop)
(push)
(assert (le x2 org.dom4j.tree.ContentListFacade))
(check-sat)
(pop)
(push)
(assert (le x2 org.dom4j.tree.ConcurrentReaderHashMap))
(check-sat)
(pop)
(push)
(assert (le x2 java.awt.RenderingHints))
(check-sat)
(pop)
(push)
(assert (le x2 java.util.ArrayList))
(check-sat)
(pop)
(push)
(assert (le x2 com.lowagie.text.pdf.PdfWriter_currencysign_PdfBody))
(check-sat)
(pop)
(push)
(assert (le x2 com.lowagie.text.Cell))
(check-sat)
(pop)
(pop)
(pop)
(push)
(assert (not (le x2 java.util.IdentityHashMap)))
(check-sat)
(push)
(assert (le x2 java.util.AbstractMap))
(check-sat)
(push)
(assert (not (le x2 java.util.HashMap)))
(check-sat)
(push)
(assert (not (le x2 org.dom4j.tree.ConcurrentReaderHashMap)))
(check-sat)
(push)
(assert (not (le x2 java.util.TreeMap)))
(check-sat)
(push)
(assert (not (le x2 java.util.WeakHashMap)))
(check-sat)
(pop)
(pop)
(pop)
(pop)
(pop)
(pop)
(push)
(assert (le x2 com.lowagie.text.pdf.PdfReader_currencysign_PageRefs))
(check-sat)
(pop)
(push)
(assert (le x2 java.util.Vector))
(check-sat)
(pop)
(push)
(assert (le x2 com.lowagie.text.pdf.PdfContentByte))
(check-sat)
(pop)
(push)
(assert (le x2 java.util.IdentityHashMap))
(check-sat)
(pop)
(push)
(assert (le x2 com.lowagie.text.pdf.PdfDictionary))
(check-sat)
(push)
(assert (not (le x2 com.lowagie.text.pdf.PRAcroForm)))
(check-sat)
(pop)
(pop)
(push)
(assert (le x2 java.util.AbstractCollection))
(check-sat)
(pop)
(push)
(assert (le x2 java.util.TreeMap))
(check-sat)
(pop)
(push)
(assert (le x2 java.util.HashSet))
(check-sat)
(pop)
(push)
(assert (le x2 org.dom4j.tree.NamespaceStack))
(check-sat)
(pop)
(push)
(assert (le x2 com.lowagie.text.pdf.PdfArray))
(check-sat)
(pop)
(push)
(assert (le x2 com.lowagie.text.pdf.IntHashtable))
(check-sat)
(pop)
(push)
(assert (le x2 org.jaxen.util.SingletonList))
(check-sat)
(pop)
(push)
(assert (le x2 java.util.TreeSet))
(check-sat)
(pop)
(push)
(assert (le x2 java.util.LinkedList))
(check-sat)
(pop)
(push)
(assert (le x2 org.dom4j.io.ElementStack))
(check-sat)
(pop)
(push)
(assert (le x2 com.lowagie.text.pdf.PdfCell))
(check-sat)
(pop)
(push)
(assert (le x2 org.dom4j.tree.ContentListFacade))
(check-sat)
(pop)
(push)
(assert (le x2 org.dom4j.tree.ConcurrentReaderHashMap))
(check-sat)
(pop)
(push)
(assert (le x2 java.awt.RenderingHints))
(check-sat)
(pop)
(push)
(assert (le x2 java.util.ArrayList))
(check-sat)
(pop)
(push)
(assert (le x2 com.lowagie.text.pdf.PdfWriter_currencysign_PdfBody))
(check-sat)
(pop)
(push)
(assert (le x2 com.lowagie.text.Cell))
(check-sat)
(pop)
(pop)
(push)
(assert (not (le x3 com.lowagie.text.pdf.PdfName)))
(check-sat)
(pop)
(pop)
(pop)
(pop)
(push)
(assert (not (le x1 java.lang.StringBuffer)))
(check-sat)
(pop)
